
630.0
630.0
870.0
840.0
630.0
630.0
630.0
810.0
1260.0
930.0
810.0
1050.0
780.0
930.0
810.0
630.0
960.0
840.0
900.0
900.0
1050.0
900.0
630.0
630.0
630.0
900.0
900.0
810.0
960.0
1140.0
1050.0
810.0
630.0
630.0
630.0
630.0
630.0
750.0
960.0
1020.0